776,593
799,424
741,406
744,469
317,142
351,406
597,490
639,448
628,433
641,326
677,377
826,301
850,237
927,67
681,-44
736,235
771,406
947,599
927,745
898,833
1093,705
844,726
580,719
699,524
657,423
586,593
512,575
435,745
1081,610
1117,723
